numOfMachines = 4;
numOfRobots = 2;
numOfJobs = 5;
maxOperations = 4;
operationsCount = [4,3,3,3,4];

operation = [
[<0,0,0>,<3,9,0>,<1,12,1>,<2,9,0>,<4,6,1>],
[<0,0,0>,<3,16,0>,<2,11,0>,<4,9,1>],
[<0,0,0>,<1,21,0>,<2,18,0>,<4,7,0>],
[<0,0,0>,<2,20,0>,<3,22,1>,<4,11,0>],
[<0,0,0>,<3,14,0>,<1,16,0>,<2,13,1>,<4,9,0>]
];